Set parameter TokenServer to value "hpc-licenses.hpcc.usc.edu"
Set parameter TimeLimit to value 3600
Gurobi Optimizer version 9.5.1 build v9.5.1rc2 (linux64)
Thread count: 20 physical cores, 20 logical processors, using up to 20 threads
Optimize a model with 6007 rows, 4529 columns and 24534 nonzeros
Model fingerprint: 0xb9ff5eab
Variable types: 4506 continuous, 23 integer (23 binary)
Coefficient statistics:
  Matrix range     [1e+00, 1e+00]
  Objective range  [3e-03, 1e+00]
  Bounds range     [1e+00, 1e+00]
  RHS range        [1e+00, 2e+02]
Presolve removed 1520 rows and 1515 columns
Presolve time: 0.10s
Presolved: 4487 rows, 3014 columns, 21975 nonzeros
Variable types: 2994 continuous, 20 integer (20 binary)
Found heuristic solution: objective 224.4099387

Root relaxation: objective 2.346161e+02, 3152 iterations, 0.15 seconds (0.15 work units)

    Nodes    |    Current Node    |     Objective Bounds      |     Work
 Expl Unexpl |  Obj  Depth IntInf | Incumbent    BestBd   Gap | It/Node Time

     0     0  234.61614    0    2  224.40994  234.61614  4.55%     -    0s
     0     0  234.41507    0    2  224.40994  234.41507  4.46%     -    0s
     0     0  234.29050    0    2  224.40994  234.29050  4.40%     -    0s
     0     0  234.01798    0    4  224.40994  234.01798  4.28%     -    0s
     0     0  234.01488    0    2  224.40994  234.01488  4.28%     -    0s
H    0     0                     233.6805644  233.99930  0.14%     -    0s
     0     0  233.99930    0    4  233.68056  233.99930  0.14%     -    0s
     0     0  233.99761    0    4  233.68056  233.99761  0.14%     -    0s
     0     0  233.70270    0    4  233.68056  233.70270  0.01%     -    0s

Cutting planes:
  Gomory: 5
  MIR: 186
  Flow cover: 1
  RLT: 9
  Relax-and-lift: 13

Explored 1 nodes (3973 simplex iterations) in 0.94 seconds (0.66 work units)
Thread count was 20 (of 20 available processors)

Solution count 2: 233.681 224.41 

Optimal solution found (tolerance 1.00e-04)
Best objective 2.336805644004e+02, best bound 2.337026987885e+02, gap 0.0095%



#########node  1
V1.7
#########node  2
0.0,1.0
#########node  3
1.0,0.0


Total Solving Time 1.3515002727508545
obj value 233.68056440038202
Policy Regret train (Sum) 4.147362670960024
Best Treatment Found train (%) 70.19999999999999
treatment classification acc train (%) 25.2
Policy Regret test (Sum) 63.74597884426457
Best Treatment Found test (%) 73.06
treatment classification acc test (%) 25.95
